100
128
22
15
5
6
2
15
8
37
26
7
16
5
4
33
11
54
17
57
25
9
8
28
24
54
57
36
37
57
30
48
59
34
19
24
17
41
58
52
17
29
21
25
30
59
18
20
52
27
51
24
8
44
28
54
26
16
32
53
44
31
47
24
57
40
2
22
64
12
46
21
26
35
47
32
24
25
28
30
38
47
51
32
60
1
26
48
44
40
36
30
36
42
50
62
62
49
41
64
64
38